p edge 75 278
e 1 17
e 1 29
e 1 52
e 1 56
e 1 65
e 1 72
e 2 9
e 2 18
e 2 21
e 2 45
e 2 49
e 2 66
e 2 71
e 3 4
e 3 11
e 3 18
e 3 36
e 3 43
e 3 49
e 3 59
e 3 67
e 3 74
e 4 9
e 4 21
e 4 27
e 4 34
e 4 40
e 4 42
e 4 52
e 4 53
e 4 68
e 4 72
e 5 7
e 5 20
e 5 35
e 5 57
e 5 63
e 5 64
e 5 74
e 6 8
e 6 10
e 6 16
e 6 19
e 6 26
e 6 28
e 7 11
e 7 21
e 7 26
e 7 28
e 7 40
e 7 50
e 7 54
e 7 60
e 8 12
e 8 22
e 8 25
e 8 35
e 8 47
e 8 60
e 8 61
e 8 63
e 8 67
e 8 73
e 9 14
e 9 17
e 9 23
e 9 32
e 9 41
e 9 44
e 9 49
e 9 57
e 9 74
e 10 15
e 10 27
e 10 29
e 10 34
e 11 18
e 11 27
e 11 41
e 11 53
e 11 54
e 11 61
e 12 18
e 12 25
e 12 26
e 12 30
e 12 32
e 12 45
e 12 48
e 12 57
e 12 65
e 12 70
e 13 14
e 13 19
e 13 63
e 14 16
e 14 32
e 14 38
e 14 40
e 14 43
e 14 45
e 14 52
e 14 66
e 15 23
e 15 26
e 15 40
e 15 41
e 15 46
e 15 59
e 15 69
e 15 72
e 16 21
e 16 34
e 16 45
e 16 54
e 16 57
e 16 65
e 17 18
e 17 26
e 17 41
e 17 50
e 18 45
e 18 47
e 18 48
e 18 49
e 18 50
e 18 56
e 18 61
e 18 62
e 18 63
e 18 65
e 19 31
e 19 32
e 19 38
e 19 39
e 19 48
e 19 49
e 19 57
e 19 69
e 20 30
e 20 35
e 20 36
e 20 42
e 20 56
e 20 64
e 20 68
e 20 71
e 21 30
e 21 41
e 21 44
e 21 46
e 21 50
e 21 59
e 21 62
e 21 69
e 21 71
e 22 25
e 22 39
e 22 40
e 22 45
e 22 51
e 22 60
e 22 64
e 23 36
e 23 59
e 23 60
e 23 68
e 24 42
e 24 62
e 24 73
e 25 34
e 25 52
e 26 44
e 26 62
e 27 41
e 27 60
e 27 66
e 28 38
e 29 47
e 30 33
e 30 34
e 30 48
e 31 32
e 31 42
e 31 43
e 31 53
e 31 67
e 31 68
e 32 54
e 32 66
e 32 73
e 32 75
e 33 34
e 33 37
e 33 48
e 33 52
e 33 63
e 33 71
e 34 36
e 34 63
e 34 69
e 35 48
e 35 60
e 35 69
e 35 74
e 36 38
e 36 47
e 36 60
e 37 40
e 37 54
e 37 59
e 38 42
e 38 52
e 38 62
e 38 64
e 39 47
e 39 52
e 39 56
e 39 62
e 39 67
e 40 41
e 40 56
e 40 62
e 41 45
e 41 56
e 41 73
e 42 43
e 42 51
e 42 60
e 42 70
e 42 75
e 43 49
e 43 53
e 44 46
e 44 50
e 44 55
e 44 74
e 45 54
e 45 63
e 45 73
e 45 75
e 46 51
e 46 53
e 46 66
e 46 74
e 48 50
e 48 59
e 48 74
e 49 67
e 49 74
e 50 53
e 50 59
e 50 63
e 51 52
e 51 65
e 51 70
e 52 61
e 53 57
e 54 55
e 54 65
e 54 71
e 54 73
e 56 62
e 57 61
e 58 63
e 58 64
e 58 74
e 59 62
e 59 72
e 59 73
e 59 75
e 61 66
e 61 73
e 63 70
e 64 66
e 64 67
e 66 72
e 68 73
